\ENCODING=ISO-8859-1
\Problem name: 

Maximize
 obj: x1 + x2 + x3 + x4 + x5 + x6 + x7 + x8 + x9 + x10 + x11 + x12 + x13 + x14
      + x15 + x16 + x17 + x18 + x19 + x20 + x21 + x22 + x23 + x24 + x25 + x26
      + x27 + x28 + x29 + x30 + x31 + x32 + x33 + x34 + x35 + x36 + x37 + x38
      + x39 + x40 + x41 + x42 + x43 + x44 + x45 + x46 + x47 + x48 + x49 + x50
      + x51 + x52 + x53 + x54 + x55 + x56 + x57 + x58 + x59 + x60 + x61 + x62
      + x63 + x64 + x65 + x66 + x67 + x68 + x69 + x70 + x71 + x72 + x73 + x74
      + x75 + x76 + x77 + x78 + x79 + x80 + x81 + x82 + x83 + x84 + x85 + x86
      + x87 + x88 + x89 + x90 + x91 + x92 + x93 + x94 + x95 + x96 + x97 + x98
      + x99 + x100 + x101 + x102 + x103 + x104 + x105 + x106 + x107 + x108
      + x109 + x110 + x111 + x112 + x113 + x114 + x115 + x116 + x117 + x118
      + x119 + x120 + x121 + x122 + x123 + x124 + x125 + x126 + x127 + x128
      + x129 + x130 + x131 + x132 + x133 + x134 + x135 + x136 + x137 + x138
      + x139 + x140 + x141 + x142 + x143 + x144 + x145 + x146 + x147 + x148
      + x149 + x150
Subject To
 clq1:   x25 + x82 <= 1
 clq2:   x2 + x77 + x122 <= 1
 clq3:   x45 + x111 <= 1
 clq4:   x19 + x63 + x91 <= 1
 clq5:   x129 + x145 <= 1
 clq6:   x28 + x90 <= 1
 clq7:   x19 + x52 + x71 + x97 <= 1
 clq8:   x52 + x68 <= 1
 clq9:   x101 + x134 + x144 <= 1
 clq10:  x89 + x94 <= 1
 clq11:  x108 + x112 + x119 <= 1
 clq12:  x15 + x53 + x123 <= 1
 clq13:  x20 + x131 + x132 <= 1
 clq14:  x43 + x136 <= 1
 clq15:  x2 + x48 + x49 <= 1
 clq16:  x2 + x93 + x131 <= 1
 clq17:  x28 + x108 <= 1
 clq18:  x41 + x58 + x97 <= 1
 clq19:  x9 + x123 <= 1
 clq20:  x1 + x33 + x103 <= 1
 clq21:  x21 + x84 + x138 + x147 <= 1
 clq22:  x3 + x141 <= 1
 clq23:  x64 + x73 + x74 <= 1
 clq24:  x86 + x101 + x118 <= 1
 clq25:  x45 + x95 + x112 <= 1
 clq26:  x9 + x37 + x104 <= 1
 clq27:  x69 + x116 <= 1
 clq28:  x6 + x22 + x140 <= 1
 clq29:  x38 + x50 + x78 <= 1
 clq30:  x106 + x139 <= 1
 clq31:  x16 + x44 + x101 <= 1
 clq32:  x3 + x95 <= 1
 clq33:  x36 + x55 <= 1
 clq34:  x42 + x123 + x136 <= 1
 clq35:  x21 + x112 <= 1
 clq36:  x89 + x115 + x149 <= 1
 clq37:  x48 + x49 + x89 <= 1
 clq38:  x18 + x99 + x116 <= 1
 clq39:  x70 + x77 + x105 <= 1
 clq40:  x26 + x98 + x117 <= 1
 clq41:  x28 + x107 <= 1
 clq42:  x53 + x94 + x127 <= 1
 clq43:  x26 + x118 + x146 <= 1
 clq44:  x102 + x131 <= 1
 clq45:  x19 + x33 + x38 <= 1
 clq46:  x98 + x120 <= 1
 clq47:  x26 + x46 + x79 <= 1
 clq48:  x53 + x59 + x131 <= 1
 clq49:  x24 + x80 <= 1
 clq50:  x43 + x59 + x124 <= 1
 clq51:  x92 + x149 <= 1
 clq52:  x53 + x79 + x126 <= 1
 clq53:  x1 + x49 + x137 <= 1
 clq54:  x63 + x88 <= 1
 clq55:  x53 + x129 <= 1
 clq56:  x9 + x73 + x130 <= 1
 clq57:  x13 + x51 + x107 <= 1
 clq58:  x32 + x143 <= 1
 clq59:  x80 + x137 <= 1
 clq60:  x27 + x110 + x137 <= 1
 clq61:  x5 + x88 + x147 <= 1
 clq62:  x36 + x88 + x123 <= 1
 clq63:  x32 + x100 + x103 <= 1
 clq64:  x43 + x74 + x92 <= 1
 clq65:  x83 + x100 + x108 <= 1
 clq66:  x102 + x125 + x144 <= 1
 clq67:  x17 + x20 + x131 <= 1
 clq68:  x31 + x128 <= 1
 clq69:  x6 + x118 + x133 <= 1
 clq70:  x6 + x32 + x41 <= 1
 clq71:  x31 + x144 <= 1
 clq72:  x118 + x147 <= 1
 clq73:  x37 + x38 + x64 <= 1
 clq74:  x30 + x69 + x104 <= 1
 clq75:  x7 + x18 + x134 <= 1
 clq76:  x48 + x102 + x144 <= 1
 clq77:  x41 + x107 + x115 <= 1
 clq78:  x10 + x104 + x110 <= 1
 clq79:  x32 + x100 + x127 <= 1
 clq80:  x31 + x61 + x118 <= 1
 clq81:  x114 + x117 <= 1
 clq82:  x48 + x141 <= 1
 clq83:  x12 + x31 + x103 <= 1
 clq84:  x87 + x137 <= 1
 clq85:  x18 + x20 + x57 <= 1
 clq86:  x60 + x84 <= 1
 clq87:  x82 + x129 <= 1
 clq88:  x39 + x106 <= 1
 clq89:  x80 + x89 <= 1
 clq90:  x75 + x143 <= 1
 clq91:  x103 + x115 + x149 + x150 <= 1
 clq92:  x37 + x111 + x136 <= 1
 clq93:  x13 + x106 <= 1
 clq94:  x63 + x71 + x117 <= 1
 clq95:  x130 + x135 <= 1
 clq96:  x29 + x135 <= 1
 clq97:  x94 + x96 + x127 <= 1
 clq98:  x80 + x127 <= 1
 clq99:  x43 + x71 <= 1
 clq100: x59 + x66 + x119 <= 1
 clq101: x7 + x146 <= 1
 clq102: x25 + x122 <= 1
 clq103: x13 + x48 + x55 <= 1
 clq104: x114 + x122 + x132 <= 1
 clq105: x102 + x120 <= 1
 clq106: x1 + x27 + x108 <= 1
 clq107: x13 + x94 <= 1
 clq108: x107 + x143 <= 1
 clq109: x64 + x73 + x114 <= 1
 clq110: x54 + x116 <= 1
 clq111: x24 + x53 + x84 <= 1
 clq112: x66 + x77 + x140 <= 1
 clq113: x2 + x58 <= 1
 clq114: x20 + x88 + x148 <= 1
 clq115: x46 + x103 <= 1
 clq116: x45 + x85 + x112 <= 1
 clq117: x29 + x95 + x136 <= 1
 clq118: x22 + x71 <= 1
 clq119: x78 + x96 <= 1
 clq120: x14 + x59 + x98 <= 1
 clq121: x87 + x134 <= 1
 clq122: x52 + x53 + x79 <= 1
 clq123: x8 + x40 + x65 <= 1
 clq124: x65 + x91 <= 1
 clq125: x30 + x69 + x121 <= 1
 clq126: x23 + x55 <= 1
 clq127: x16 + x22 + x26 <= 1
 clq128: x97 + x105 <= 1
 clq129: x19 + x71 + x116 <= 1
 clq130: x19 + x24 + x66 <= 1
 clq131: x51 + x60 <= 1
 clq132: x62 + x88 + x97 <= 1
 clq133: x1 + x108 + x112 <= 1
 clq134: x57 + x114 + x121 <= 1
 clq135: x35 + x54 <= 1
 clq136: x40 + x75 <= 1
 clq137: x6 + x118 + x140 <= 1
 clq138: x9 + x17 <= 1
 clq139: x9 + x40 <= 1
 clq140: x50 + x94 + x119 <= 1
 clq141: x1 + x107 <= 1
 clq142: x44 + x62 <= 1
 clq143: x24 + x53 + x120 <= 1
 clq144: x68 + x122 + x132 <= 1
 clq145: x96 + x116 <= 1
 clq146: x58 + x84 + x90 <= 1
 clq147: x12 + x126 <= 1
 clq148: x12 + x48 + x103 <= 1
 clq149: x57 + x66 <= 1
 clq150: x1 + x98 + x108 <= 1
 clq151: x18 + x138 <= 1
 clq152: x21 + x143 <= 1
 clq153: x56 + x100 + x144 <= 1
 clq154: x73 + x106 + x114 <= 1
 clq155: x14 + x31 + x47 <= 1
 clq156: x21 + x42 + x113 <= 1
 clq157: x91 + x122 + x140 <= 1
 clq158: x12 + x48 + x138 <= 1
 clq159: x20 + x39 + x88 <= 1
 clq160: x15 + x110 <= 1
 clq161: x58 + x146 <= 1
 clq162: x46 + x91 <= 1
 clq163: x17 + x86 + x118 <= 1
 clq164: x109 + x135 <= 1
 clq165: x1 + x6 <= 1
 clq166: x37 + x38 + x62 + x97 <= 1
 clq167: x64 + x129 <= 1
 clq168: x47 + x56 <= 1
 clq169: x28 + x48 <= 1
 clq170: x4 + x37 + x81 <= 1
 clq171: x77 + x115 + x150 <= 1
 clq172: x4 + x55 + x128 <= 1
 clq173: x75 + x119 <= 1
 clq174: x26 + x43 + x107 <= 1
 clq175: x79 + x101 + x137 <= 1
 clq176: x26 + x81 + x86 <= 1
 clq177: x5 + x149 + x150 <= 1
 clq178: x62 + x97 + x125 <= 1
 clq179: x25 + x41 + x53 + x84 <= 1
 clq180: x22 + x30 + x142 <= 1
 clq181: x103 + x104 + x150 <= 1
 clq182: x56 + x125 + x144 <= 1
 clq183: x91 + x95 <= 1
 clq184: x96 + x108 <= 1
 clq185: x38 + x145 <= 1
 clq186: x24 + x148 <= 1
 clq187: x11 + x26 + x130 <= 1
 clq188: x14 + x17 + x45 <= 1
 clq189: x26 + x90 + x117 <= 1
 clq190: x3 + x83 + x93 <= 1
 clq191: x41 + x111 <= 1
 clq192: x33 + x90 <= 1
 clq193: x34 + x86 <= 1
 clq194: x21 + x145 <= 1
 clq195: x4 + x37 + x134 <= 1
 clq196: x38 + x112 <= 1
 clq197: x30 + x45 <= 1
 clq198: x8 + x35 <= 1
 clq199: x104 + x119 <= 1
 clq200: x67 + x141 <= 1
 clq201: x19 + x21 + x52 <= 1
 clq202: x61 + x72 + x92 <= 1
 clq203: x75 + x88 <= 1
 clq204: x83 + x108 + x136 <= 1
 clq205: x105 + x135 <= 1
 clq206: x124 + x137 + x150 <= 1
 clq207: x75 + x101 + x117 <= 1
 clq208: x55 + x74 <= 1
 clq209: x5 + x46 + x55 <= 1
 clq210: x72 + x73 + x147 <= 1
 clq211: x81 + x132 <= 1
 clq212: x25 + x50 + x55 <= 1
 clq213: x63 + x71 + x149 <= 1
 clq214: x9 + x29 + x59 <= 1
 clq215: x3 + x37 + x65 <= 1
 clq216: x54 + x148 <= 1
 clq217: x46 + x75 + x77 <= 1
 clq218: x17 + x35 + x75 <= 1
 clq219: x120 + x132 <= 1
 clq220: x30 + x98 + x142 <= 1
 clq221: x19 + x146 <= 1
 clq222: x63 + x113 <= 1
 clq223: x5 + x66 + x150 <= 1
 clq224: x4 + x16 + x26 <= 1
 clq225: x33 + x115 + x135 <= 1
 clq226: x4 + x14 + x81 <= 1
 clq227: x22 + x65 + x124 <= 1
 clq228: x50 + x67 + x78 <= 1
 clq229: x69 + x82 + x83 <= 1
 clq230: x4 + x58 + x85 <= 1
 clq231: x13 + x47 <= 1
 clq232: x4 + x49 + x98 <= 1
 clq233: x45 + x82 <= 1
 clq234: x2 + x31 + x61 <= 1
 clq235: x20 + x70 + x77 <= 1
 clq236: x17 + x90 + x93 <= 1
 clq237: x62 + x118 <= 1
 clq238: x51 + x107 + x115 <= 1
 clq239: x86 + x109 + x118 <= 1
 clq240: x39 + x87 + x126 <= 1
 clq241: x28 + x59 <= 1
 clq242: x15 + x98 + x131 <= 1
 clq243: x70 + x111 <= 1
 clq244: x1 + x76 + x130 <= 1
 clq245: x30 + x33 <= 1
 clq246: x18 + x35 + x50 <= 1
 clq247: x52 + x86 <= 1
 clq248: x61 + x105 + x143 <= 1
 clq249: x42 + x44 <= 1
 clq250: x108 + x113 <= 1
 clq251: x44 + x101 + x141 <= 1
 clq252: x68 + x102 + x106 <= 1
 clq253: x73 + x74 + x142 <= 1
 clq254: x30 + x57 + x78 <= 1
 clq255: x49 + x69 + x148 <= 1
 clq256: x25 + x49 + x63 <= 1
 clq257: x53 + x59 + x126 <= 1
 clq258: x46 + x106 + x123 <= 1
 clq259: x44 + x64 <= 1
 clq260: x41 + x53 + x79 <= 1
 clq261: x5 + x72 + x95 <= 1
 clq262: x20 + x68 + x109 + x112 <= 1
 clq263: x66 + x74 <= 1
 clq264: x6 + x21 + x41 + x84 <= 1
 clq265: x22 + x77 + x115 <= 1
 clq266: x17 + x35 + x45 <= 1
 clq267: x13 + x55 + x79 <= 1
 clq268: x2 + x33 + x99 <= 1
 clq269: x14 + x59 + x67 <= 1
 clq270: x10 + x102 + x106 <= 1
 clq271: x78 + x133 <= 1
 clq272: x16 + x72 + x92 <= 1
 clq273: x81 + x105 + x123 <= 1
 clq274: x53 + x81 + x115 <= 1
 clq275: x24 + x66 + x120 <= 1
 clq276: x104 + x114 <= 1
 clq277: x22 + x39 + x111 <= 1
 clq278: x4 + x49 + x128 <= 1
 clq279: x16 + x108 + x136 <= 1
 clq280: x81 + x147 <= 1
 clq281: x18 + x29 + x102 <= 1
 clq282: x67 + x75 <= 1
 clq283: x41 + x58 + x124 <= 1
 clq284: x20 + x56 + x121 <= 1
 clq285: x41 + x75 <= 1
 clq286: x51 + x140 <= 1
 clq287: x64 + x125 <= 1
 clq288: x14 + x45 + x85 <= 1
 clq289: x44 + x85 <= 1
 clq290: x53 + x81 + x123 <= 1
 clq291: x10 + x56 <= 1
 clq292: x6 + x126 + x133 <= 1
 clq293: x44 + x76 + x146 <= 1
 clq294: x56 + x72 + x115 <= 1
 clq295: x34 + x78 <= 1
 clq296: x46 + x89 <= 1
 clq297: x63 + x74 <= 1
 clq298: x33 + x95 + x136 <= 1
 clq299: x41 + x107 + x133 <= 1
 clq300: x35 + x47 <= 1
 clq301: x77 + x108 <= 1
 clq302: x22 + x26 + x69 <= 1
 clq303: x15 + x39 + x128 <= 1
 clq304: x74 + x76 + x127 <= 1
 clq305: x48 + x114 + x144 <= 1
 clq306: x12 + x27 + x86 <= 1
 clq307: x36 + x54 <= 1
 clq308: x16 + x29 + x136 <= 1
 clq309: x35 + x144 <= 1
 clq310: x23 + x32 + x100 <= 1
 clq311: x121 + x134 <= 1
 clq312: x8 + x27 <= 1
 clq313: x59 + x66 + x131 <= 1
 clq314: x23 + x76 + x120 <= 1
 clq315: x74 + x92 + x134 <= 1
 clq316: x83 + x111 + x144 <= 1
 clq317: x87 + x130 <= 1
 clq318: x47 + x65 <= 1
 clq319: x62 + x107 <= 1
 clq320: x16 + x25 + x53 <= 1
 clq321: x23 + x63 + x71 <= 1
 clq322: x70 + x80 <= 1
 clq323: x5 + x46 + x106 <= 1
 clq324: x134 + x135 + x150 <= 1
 clq325: x97 + x109 <= 1
 clq326: x31 + x68 + x106 <= 1
 clq327: x6 + x41 + x44 <= 1
 clq328: x25 + x49 + x95 <= 1
 clq329: x112 + x127 <= 1
 clq330: x71 + x102 + x117 <= 1
 clq331: x34 + x150 <= 1
 clq332: x18 + x50 + x126 <= 1
 clq333: x5 + x49 + x95 <= 1
 clq334: x4 + x14 + x134 <= 1
 clq335: x94 + x138 + x147 <= 1
 clq336: x33 + x41 + x115 <= 1
 clq337: x21 + x37 + x104 <= 1
 clq338: x37 + x100 <= 1
 clq339: x6 + x32 + x127 <= 1
 clq340: x60 + x81 + x119 <= 1
 clq341: x99 + x146 <= 1
 clq342: x17 + x90 + x140 <= 1
 clq343: x3 + x61 <= 1
 clq344: x18 + x127 <= 1
 clq345: x24 + x86 <= 1
 clq346: x68 + x100 <= 1
 clq347: x45 + x117 <= 1
 clq348: x2 + x19 + x24 <= 1
 clq349: x91 + x107 + x122 <= 1
 clq350: x43 + x88 + x114 <= 1
 clq351: x98 + x105 <= 1
 clq352: x27 + x86 + x109 <= 1
 clq353: x66 + x112 + x119 <= 1
 clq354: x56 + x93 + x144 <= 1
 clq355: x22 + x85 <= 1
 clq356: x85 + x121 <= 1
 clq357: x51 + x137 <= 1
 clq358: x73 + x148 <= 1
 clq359: x54 + x130 <= 1
 clq360: x6 + x19 + x21 <= 1
 clq361: x5 + x55 + x70 <= 1
 clq362: x61 + x119 <= 1
 clq363: x3 + x28 <= 1
 clq364: x119 + x122 <= 1
 clq365: x5 + x15 + x70 <= 1
 clq366: x2 + x49 + x69 <= 1
 clq367: x1 + x68 + x124 <= 1
 clq368: x106 + x136 + x142 <= 1
 clq369: x36 + x69 <= 1
 clq370: x8 + x55 + x128 <= 1
 clq371: x42 + x61 + x87 <= 1
 clq372: x73 + x74 + x127 <= 1
 clq373: x40 + x61 <= 1
 clq374: x54 + x93 <= 1
 clq375: x3 + x37 + x62 <= 1
 clq376: x1 + x33 + x82 <= 1
 clq377: x46 + x124 <= 1
 clq378: x14 + x21 + x138 <= 1
 clq379: x17 + x71 <= 1
 clq380: x19 + x21 + x142 <= 1
 clq381: x5 + x83 <= 1
 clq382: x15 + x39 + x131 <= 1
 clq383: x54 + x105 <= 1
 clq384: x29 + x31 + x113 <= 1
 clq385: x94 + x96 + x132 <= 1
 clq386: x29 + x59 + x95 <= 1
 clq387: x96 + x124 <= 1
 clq388: x13 + x16 + x108 <= 1
 clq389: x139 + x145 <= 1
 clq390: x36 + x102 <= 1
 clq391: x114 + x121 + x122 <= 1
 clq392: x105 + x121 + x122 <= 1
 clq393: x48 + x51 + x96 <= 1
 clq394: x4 + x134 + x144 <= 1
 clq395: x80 + x106 + x142 <= 1
 clq396: x3 + x43 <= 1
 clq397: x25 + x65 + x138 <= 1
 clq398: x75 + x96 <= 1
 clq399: x17 + x35 + x142 <= 1
 clq400: x1 + x147 <= 1
 clq401: x36 + x76 <= 1
 clq402: x64 + x96 + x114 <= 1
 clq403: x7 + x136 <= 1
 clq404: x119 + x135 <= 1
 clq405: x106 + x123 + x136 <= 1
 clq406: x9 + x104 + x150 <= 1
 clq407: x130 + x136 <= 1
 clq408: x11 + x89 + x130 <= 1
 clq409: x14 + x31 + x73 <= 1
 clq410: x33 + x115 + x141 <= 1
 clq411: x33 + x125 <= 1
 clq412: x9 + x68 + x150 <= 1
 clq413: x18 + x111 <= 1
 clq414: x2 + x24 + x31 <= 1
 clq415: x75 + x82 + x101 <= 1
 clq416: x23 + x87 <= 1
 clq417: x64 + x98 <= 1
 clq418: x22 + x95 + x124 <= 1
 clq419: x18 + x20 + x68 <= 1
 clq420: x13 + x107 + x122 <= 1
 clq421: x50 + x109 <= 1
 clq422: x63 + x125 <= 1
 clq423: x71 + x122 <= 1
 clq424: x18 + x49 + x86 <= 1
 clq425: x116 + x139 <= 1
 clq426: x99 + x117 <= 1
 clq427: x30 + x56 + x121 <= 1
 clq428: x51 + x65 <= 1
 clq429: x45 + x139 <= 1
 clq430: x33 + x118 <= 1
 clq431: x83 + x135 <= 1
 clq432: x13 + x48 + x51 <= 1
 clq433: x55 + x117 <= 1
 clq434: x58 + x80 <= 1
 clq435: x59 + x98 + x117 <= 1
 clq436: x34 + x100 <= 1
 clq437: x46 + x93 + x144 <= 1
 clq438: x29 + x147 <= 1
 clq439: x43 + x91 + x107 <= 1
 clq440: x25 + x50 + x95 <= 1
 clq441: x80 + x106 + x140 <= 1
 clq442: x10 + x62 <= 1
 clq443: x72 + x122 + x147 <= 1
 clq444: x7 + x64 + x114 <= 1
 clq445: x8 + x59 <= 1
 clq446: x131 + x145 <= 1
 clq447: x7 + x64 + x74 <= 1
 clq448: x91 + x107 + x133 <= 1
 clq449: x58 + x87 + x103 <= 1
 clq450: x71 + x84 + x123 <= 1
 clq451: x53 + x61 + x115 <= 1
 clq452: x42 + x110 + x118 <= 1
 clq453: x22 + x113 <= 1
 clq454: x10 + x92 + x134 <= 1
 clq455: x113 + x126 <= 1
 clq456: x34 + x89 + x130 <= 1
 clq457: x12 + x99 <= 1
 clq458: x29 + x62 + x97 <= 1
 clq459: x29 + x100 <= 1
 clq460: x4 + x10 + x134 <= 1
 clq461: x23 + x101 <= 1
 clq462: x15 + x56 <= 1
 clq463: x17 + x35 + x50 <= 1
 clq464: x39 + x100 + x126 <= 1
 clq465: x11 + x99 <= 1
 clq466: x64 + x135 <= 1
 clq467: x1 + x50 <= 1
 clq468: x23 + x67 <= 1
 clq469: x66 + x120 + x139 <= 1
 clq470: x42 + x83 + x136 <= 1
 clq471: x30 + x42 + x109 <= 1
 clq472: x15 + x43 + x131 <= 1
 clq473: x7 + x62 + x74 <= 1
 clq474: x11 + x121 <= 1
 clq475: x22 + x129 <= 1
 clq476: x6 + x23 + x136 <= 1
 clq477: x59 + x95 + x124 <= 1
 clq478: x21 + x106 + x138 <= 1
 clq479: x5 + x19 + x72 <= 1
 clq480: x19 + x116 + x141 <= 1
 clq481: x14 + x59 + x127 <= 1
 clq482: x52 + x71 + x97 + x117 <= 1
 clq483: x130 + x143 <= 1
 clq484: x18 + x50 + x67 <= 1
 clq485: x40 + x69 <= 1
 clq486: x14 + x89 <= 1
 clq487: x64 + x91 <= 1
 clq488: x21 + x48 + x138 <= 1
 clq489: x4 + x113 <= 1
 clq490: x83 + x100 + x144 <= 1
 clq491: x69 + x83 + x104 <= 1
 clq492: x42 + x109 + x118 <= 1
 clq493: x94 + x97 <= 1
 clq494: x2 + x48 + x138 <= 1
 clq495: x9 + x60 <= 1
 clq496: x19 + x24 + x97 <= 1
 clq497: x68 + x101 <= 1
 clq498: x72 + x96 <= 1
 clq499: x3 + x148 <= 1
 clq500: x80 + x119 <= 1
 clq501: x112 + x128 <= 1
 clq502: x27 + x94 <= 1
 clq503: x113 + x141 <= 1
 clq504: x42 + x131 <= 1
 clq505: x29 + x41 + x97 <= 1
 clq506: x7 + x41 <= 1
 clq507: x31 + x60 <= 1
 clq508: x14 + x39 + x100 <= 1
 clq509: x27 + x62 + x88 <= 1
 clq510: x6 + x70 <= 1
 clq511: x41 + x58 + x84 + x107 <= 1
 clq512: x108 + x121 <= 1
 clq513: x64 + x123 <= 1
 clq514: x36 + x42 + x118 <= 1
 clq515: x74 + x83 + x93 <= 1
 clq516: x32 + x139 <= 1
 clq517: x111 + x141 <= 1
 clq518: x16 + x44 + x80 <= 1
 clq519: x16 + x78 <= 1
 clq520: x26 + x141 <= 1
 clq521: x7 + x134 + x140 <= 1
 clq522: x6 + x114 <= 1
 clq523: x17 + x93 + x118 <= 1
 clq524: x27 + x69 + x137 <= 1
 clq525: x19 + x24 + x104 <= 1
 clq526: x56 + x103 + x115 <= 1
 clq527: x21 + x43 <= 1
 clq528: x46 + x148 <= 1
 clq529: x7 + x8 <= 1
 clq530: x69 + x106 <= 1
 clq531: x23 + x72 + x120 <= 1
 clq532: x51 + x109 <= 1
 clq533: x74 + x83 + x100 <= 1
 clq534: x117 + x136 <= 1
 clq535: x7 + x60 <= 1
 clq536: x112 + x115 <= 1
 clq537: x9 + x44 + x59 <= 1
 clq538: x40 + x89 <= 1
 clq539: x17 + x118 + x140 <= 1
 clq540: x20 + x68 + x112 + x132 <= 1
 clq541: x76 + x103 + x140 <= 1
 clq542: x64 + x139 <= 1
 clq543: x90 + x105 <= 1
 clq544: x21 + x82 <= 1
 clq545: x59 + x86 <= 1
 clq546: x38 + x42 + x61 + x72 <= 1
 clq547: x76 + x79 + x81 <= 1
 clq548: x5 + x72 + x84 + x147 <= 1
 clq549: x47 + x132 <= 1
 clq550: x64 + x113 + x137 <= 1
 clq551: x77 + x116 <= 1
 clq552: x23 + x32 + x72 <= 1
 clq553: x46 + x106 + x142 <= 1
 clq554: x15 + x25 + x53 <= 1
 clq555: x56 + x72 + x95 <= 1
 clq556: x37 + x137 + x146 <= 1
 clq557: x2 + x19 + x33 <= 1
 clq558: x10 + x25 <= 1
 clq559: x10 + x126 + x133 <= 1
 clq560: x56 + x99 <= 1
 clq561: x38 + x57 + x60 <= 1
 clq562: x66 + x84 + x140 <= 1
 clq563: x111 + x147 <= 1
 clq564: x3 + x122 <= 1
 clq565: x16 + x17 + x136 <= 1
 clq566: x109 + x143 <= 1
 clq567: x67 + x78 + x106 <= 1
 clq568: x74 + x141 <= 1
 clq569: x15 + x86 <= 1
 clq570: x25 + x57 <= 1
 clq571: x109 + x118 + x146 <= 1
 clq572: x20 + x96 + x132 <= 1
 clq573: x20 + x70 + x112 <= 1
 clq574: x69 + x81 + x148 <= 1
 clq575: x11 + x22 + x26 + x77 <= 1
 clq576: x39 + x94 + x128 <= 1
 clq577: x32 + x137 + x146 <= 1
 clq578: x4 + x26 + x77 <= 1
 clq579: x48 + x56 + x144 <= 1
 clq580: x14 + x45 + x81 <= 1
 clq581: x53 + x77 + x93 <= 1
 clq582: x14 + x31 + x98 <= 1
 clq583: x22 + x73 + x142 <= 1
 clq584: x82 + x146 <= 1
 clq585: x48 + x102 + x103 <= 1
 clq586: x57 + x136 <= 1
 clq587: x12 + x65 + x138 <= 1
 clq588: x40 + x109 <= 1
 clq589: x23 + x124 <= 1
 clq590: x43 + x88 + x129 <= 1
 clq591: x13 + x15 <= 1
 clq592: x29 + x85 <= 1
 clq593: x106 + x114 + x115 <= 1
 clq594: x29 + x102 + x143 <= 1
 clq595: x60 + x110 <= 1
 clq596: x43 + x89 <= 1
 clq597: x41 + x121 <= 1
 clq598: x48 + x96 + x114 <= 1
 clq599: x49 + x95 + x98 <= 1
 clq600: x104 + x127 <= 1
 clq601: x13 + x51 + x59 <= 1
 clq602: x19 + x129 <= 1
 clq603: x7 + x88 + x114 <= 1
 clq604: x14 + x109 + x138 <= 1
 clq605: x47 + x123 <= 1
 clq606: x2 + x15 + x131 <= 1
 clq607: x27 + x103 + x104 <= 1
 clq608: x31 + x73 + x103 <= 1
 clq609: x70 + x124 + x150 <= 1
 clq610: x112 + x126 <= 1
 clq611: x39 + x59 + x131 <= 1
 clq612: x54 + x100 <= 1
 clq613: x92 + x94 + x134 <= 1
 clq614: x53 + x84 + x135 <= 1
 clq615: x83 + x97 <= 1
 clq616: x24 + x99 + x116 <= 1
 clq617: x59 + x66 + x110 <= 1
 clq618: x1 + x49 + x98 <= 1
 clq619: x140 + x141 <= 1
 clq620: x20 + x62 + x88 <= 1
 clq621: x66 + x94 + x119 <= 1
 clq622: x35 + x73 + x142 <= 1
 clq623: x42 + x61 + x72 + x115 <= 1
 clq624: x33 + x70 <= 1
 clq625: x42 + x49 + x110 <= 1
 clq626: x16 + x72 + x80 <= 1
 clq627: x101 + x134 + x135 <= 1
 clq628: x22 + x24 <= 1
 clq629: x17 + x35 + x131 <= 1
 clq630: x8 + x30 <= 1
 clq631: x29 + x77 <= 1
 clq632: x6 + x8 <= 1
 clq633: x46 + x55 + x110 <= 1
 clq634: x54 + x91 + x94 <= 1
 clq635: x1 + x97 <= 1
 clq636: x110 + x137 + x145 <= 1
 clq637: x20 + x39 + x125 <= 1
 clq638: x14 + x62 <= 1
 clq639: x90 + x119 <= 1
 clq640: x31 + x61 + x113 <= 1
 clq641: x2 + x139 <= 1
 clq642: x50 + x69 + x81 <= 1
 clq643: x13 + x30 + x57 <= 1
 clq644: x53 + x114 + x115 <= 1
 clq645: x24 + x45 <= 1
 clq646: x51 + x74 + x102 <= 1
 clq647: x19 + x34 + x97 <= 1
 clq648: x84 + x107 + x113 <= 1
 clq649: x46 + x55 + x79 <= 1
Bounds
 0 <= x1 <= 1
 0 <= x2 <= 1
 0 <= x3 <= 1
 0 <= x4 <= 1
 0 <= x5 <= 1
 0 <= x6 <= 1
 0 <= x7 <= 1
 0 <= x8 <= 1
 0 <= x9 <= 1
 0 <= x10 <= 1
 0 <= x11 <= 1
 0 <= x12 <= 1
 0 <= x13 <= 1
 0 <= x14 <= 1
 0 <= x15 <= 1
 0 <= x16 <= 1
 0 <= x17 <= 1
 0 <= x18 <= 1
 0 <= x19 <= 1
 0 <= x20 <= 1
 0 <= x21 <= 1
 0 <= x22 <= 1
 0 <= x23 <= 1
 0 <= x24 <= 1
 0 <= x25 <= 1
 0 <= x26 <= 1
 0 <= x27 <= 1
 0 <= x28 <= 1
 0 <= x29 <= 1
 0 <= x30 <= 1
 0 <= x31 <= 1
 0 <= x32 <= 1
 0 <= x33 <= 1
 0 <= x34 <= 1
 0 <= x35 <= 1
 0 <= x36 <= 1
 0 <= x37 <= 1
 0 <= x38 <= 1
 0 <= x39 <= 1
 0 <= x40 <= 1
 0 <= x41 <= 1
 0 <= x42 <= 1
 0 <= x43 <= 1
 0 <= x44 <= 1
 0 <= x45 <= 1
 0 <= x46 <= 1
 0 <= x47 <= 1
 0 <= x48 <= 1
 0 <= x49 <= 1
 0 <= x50 <= 1
 0 <= x51 <= 1
 0 <= x52 <= 1
 0 <= x53 <= 1
 0 <= x54 <= 1
 0 <= x55 <= 1
 0 <= x56 <= 1
 0 <= x57 <= 1
 0 <= x58 <= 1
 0 <= x59 <= 1
 0 <= x60 <= 1
 0 <= x61 <= 1
 0 <= x62 <= 1
 0 <= x63 <= 1
 0 <= x64 <= 1
 0 <= x65 <= 1
 0 <= x66 <= 1
 0 <= x67 <= 1
 0 <= x68 <= 1
 0 <= x69 <= 1
 0 <= x70 <= 1
 0 <= x71 <= 1
 0 <= x72 <= 1
 0 <= x73 <= 1
 0 <= x74 <= 1
 0 <= x75 <= 1
 0 <= x76 <= 1
 0 <= x77 <= 1
 0 <= x78 <= 1
 0 <= x79 <= 1
 0 <= x80 <= 1
 0 <= x81 <= 1
 0 <= x82 <= 1
 0 <= x83 <= 1
 0 <= x84 <= 1
 0 <= x85 <= 1
 0 <= x86 <= 1
 0 <= x87 <= 1
 0 <= x88 <= 1
 0 <= x89 <= 1
 0 <= x90 <= 1
 0 <= x91 <= 1
 0 <= x92 <= 1
 0 <= x93 <= 1
 0 <= x94 <= 1
 0 <= x95 <= 1
 0 <= x96 <= 1
 0 <= x97 <= 1
 0 <= x98 <= 1
 0 <= x99 <= 1
 0 <= x100 <= 1
 0 <= x101 <= 1
 0 <= x102 <= 1
 0 <= x103 <= 1
 0 <= x104 <= 1
 0 <= x105 <= 1
 0 <= x106 <= 1
 0 <= x107 <= 1
 0 <= x108 <= 1
 0 <= x109 <= 1
 0 <= x110 <= 1
 0 <= x111 <= 1
 0 <= x112 <= 1
 0 <= x113 <= 1
 0 <= x114 <= 1
 0 <= x115 <= 1
 0 <= x116 <= 1
 0 <= x117 <= 1
 0 <= x118 <= 1
 0 <= x119 <= 1
 0 <= x120 <= 1
 0 <= x121 <= 1
 0 <= x122 <= 1
 0 <= x123 <= 1
 0 <= x124 <= 1
 0 <= x125 <= 1
 0 <= x126 <= 1
 0 <= x127 <= 1
 0 <= x128 <= 1
 0 <= x129 <= 1
 0 <= x130 <= 1
 0 <= x131 <= 1
 0 <= x132 <= 1
 0 <= x133 <= 1
 0 <= x134 <= 1
 0 <= x135 <= 1
 0 <= x136 <= 1
 0 <= x137 <= 1
 0 <= x138 <= 1
 0 <= x139 <= 1
 0 <= x140 <= 1
 0 <= x141 <= 1
 0 <= x142 <= 1
 0 <= x143 <= 1
 0 <= x144 <= 1
 0 <= x145 <= 1
 0 <= x146 <= 1
 0 <= x147 <= 1
 0 <= x148 <= 1
 0 <= x149 <= 1
 0 <= x150 <= 1
Binaries
 x1  x2  x3  x4  x5  x6  x7  x8  x9  x10  x11  x12  x13  x14  x15  x16  x17 
 x18  x19  x20  x21  x22  x23  x24  x25  x26  x27  x28  x29  x30  x31  x32 
 x33  x34  x35  x36  x37  x38  x39  x40  x41  x42  x43  x44  x45  x46  x47 
 x48  x49  x50  x51  x52  x53  x54  x55  x56  x57  x58  x59  x60  x61  x62 
 x63  x64  x65  x66  x67  x68  x69  x70  x71  x72  x73  x74  x75  x76  x77 
 x78  x79  x80  x81  x82  x83  x84  x85  x86  x87  x88  x89  x90  x91  x92 
 x93  x94  x95  x96  x97  x98  x99  x100  x101  x102  x103  x104  x105  x106 
 x107  x108  x109  x110  x111  x112  x113  x114  x115  x116  x117  x118  x119 
 x120  x121  x122  x123  x124  x125  x126  x127  x128  x129  x130  x131  x132 
 x133  x134  x135  x136  x137  x138  x139  x140  x141  x142  x143  x144  x145 
 x146  x147  x148  x149  x150 
End
